nK = 748;
nT = 6;
nI = 14;
L = 29;
TT = 237;
np = 1;
nc = 3;
b = [60, 62, 36, 54, 34, 61, 31, 59, 38, 27, 40, 36, 70, 29];
d = [90, 132, 63, 107, 103, 102, 128, 92, 86, 47, 114, 55, 105, 149];
m = [1.4, 1, 1.3, 1.6, 1.8, 2.2, 1.9, 2.4, 1, 2.1, 1.4, 1, 2.5, 2];
pt = [0.3, 0.31, 0.32, 0.33, 0.3, 0.34];
st = [14.1, 15.5, 16, 14.52, 12.6, 17.68];
arc = {<1, 0, 1, 1, 0, 0, 0, [1, 1, 1, 1, 1, 1]>, <2, 1, 2, 1, 0, 0, 0, [1, 1, 1, 1, 1, 1]>, <3, 2, 3, 1, 0, 0, 0, [1, 1, 1, 1, 1, 1]>, <4, 3, 4, 1, 0, 0, 0, [1, 1, 1, 1, 1, 1]>, <5, 4, 5, 1, 0, 0, 0, [1, 1, 1, 1, 1, 1]>, <6, 5, 6, 1, 0, 0, 0, [1, 1, 1, 1, 1, 1]>, <7, 6, 7, 1, 0, 0, 0, [1, 1, 1, 1, 1, 1]>, <8, 7, 8, 1, 0, 0, 0, [1, 1, 1, 1, 1, 1]>, <9, 8, 9, 1, 0, 0, 0, [1, 1, 1, 1, 1, 1]>, <10, 9, 10, 1, 0, 0, 0, [1, 1, 1, 1, 1, 1]>, <11, 10, 11, 1, 0, 0, 0, [1, 1, 1, 1, 1, 1]>, <12, 11, 12, 1, 0, 0, 0, [1, 1, 1, 1, 1, 1]>, <13, 12, 13, 1, 0, 0, 0, [1, 1, 1, 1, 1, 1]>, <14, 13, 14, 1, 0, 0, 0, [1, 1, 1, 1, 1, 1]>, <15, 14, 15, 1, 0, 0, 0, [1, 1, 1, 1, 1, 1]>, <16, 15, 16, 1, 0, 0, 0, [1, 1, 1, 1, 1, 1]>, <17, 16, 17, 1, 0, 0, 0, [1, 1, 1, 1, 1, 1]>, <18, 17, 18, 1, 0, 0, 0, [1, 1, 1, 1, 1, 1]>, <19, 18, 19, 1, 0, 0, 0, [1, 1, 1, 1, 1, 1]>, <20, 19, 20, 1, 0, 0, 0, [1, 1, 1, 1, 1, 1]>, <21, 20, 21, 1, 0, 0, 0, [1, 1, 1, 1, 1, 1]>, <22, 21, 22, 1, 0, 0, 0, [1, 1, 1, 1, 1, 1]>, <23, 22, 23, 1, 0, 0, 0, [1, 1, 1, 1, 1, 1]>, <24, 23, 24, 1, 0, 0, 0, [1, 1, 1, 1, 1, 1]>, <25, 24, 25, 1, 0, 0, 0, [1, 1, 1, 1, 1, 1]>, <26, 25, 26, 1, 0, 0, 0, [1, 1, 1, 1, 1, 1]>, <27, 26, 27, 1, 0, 0, 0, [1, 1, 1, 1, 1, 1]>, <28, 27, 28, 1, 0, 0, 0, [1, 1, 1, 1, 1, 1]>, <29, 28, 29, 1, 0, 0, 0, [1, 1, 1, 1, 1, 1]>, <30, 1, 12, 11, 1, 0, 0, [0, 1, 1, 0, 0, 0]>, <31, 2, 13, 11, 1, 0, 0, [0, 1, 1, 0, 0, 0]>, <32, 3, 14, 11, 1, 0, 0, [0, 1, 1, 0, 0, 0]>, <33, 4, 15, 11, 1, 0, 0, [0, 1, 1, 0, 0, 0]>, <34, 5, 16, 11, 1, 0, 0, [0, 1, 1, 0, 0, 0]>, <35, 9, 20, 11, 1, 0, 0, [0, 1, 1, 0, 0, 0]>, <36, 10, 21, 11, 1, 0, 0, [0, 1, 1, 0, 0, 0]>, <37, 11, 22, 11, 1, 0, 0, [0, 1, 1, 0, 0, 0]>, <38, 12, 23, 11, 1, 0, 0, [0, 1, 1, 0, 0, 0]>, <39, 13, 24, 11, 1, 0, 0, [0, 1, 1, 0, 0, 0]>, <40, 14, 25, 11, 1, 0, 0, [0, 1, 1, 0, 0, 0]>, <41, 15, 26, 11, 1, 0, 0, [0, 1, 1, 0, 0, 0]>, <42, 16, 27, 11, 1, 0, 0, [0, 1, 1, 0, 0, 0]>, <43, 17, 28, 11, 1, 0, 0, [0, 1, 1, 0, 0, 0]>, <44, 18, 29, 11, 1, 0, 0, [0, 1, 1, 0, 0, 0]>, <45, 3, 12, 9, 2, 0, 0, [1, 1, 0, 0, 0, 0]>, <46, 4, 13, 9, 2, 0, 0, [1, 1, 0, 0, 0, 0]>, <47, 5, 14, 9, 2, 0, 0, [1, 1, 0, 0, 0, 0]>, <48, 11, 20, 9, 2, 0, 0, [1, 1, 0, 0, 0, 0]>, <49, 12, 21, 9, 2, 0, 0, [1, 1, 0, 0, 0, 0]>, <50, 15, 24, 9, 2, 0, 0, [1, 1, 0, 0, 0, 0]>, <51, 16, 25, 9, 2, 0, 0, [1, 1, 0, 0, 0, 0]>, <52, 17, 26, 9, 2, 0, 0, [1, 1, 0, 0, 0, 0]>, <53, 18, 27, 9, 2, 0, 0, [1, 1, 0, 0, 0, 0]>, <54, 19, 28, 9, 2, 0, 0, [1, 1, 0, 0, 0, 0]>, <55, 20, 29, 9, 2, 0, 0, [1, 1, 0, 0, 0, 0]>, <56, 0, 12, 12, 3, 0, 1, [0, 1, 1, 0, 0, 0]>, <57, 1, 13, 12, 3, 0, 1, [0, 1, 1, 0, 0, 0]>, <58, 2, 14, 12, 3, 0, 1, [0, 1, 1, 0, 0, 0]>, <59, 3, 15, 12, 3, 0, 1, [0, 1, 1, 0, 0, 0]>, <60, 4, 16, 12, 3, 0, 1, [0, 1, 1, 0, 0, 0]>, <61, 5, 17, 12, 3, 0, 1, [0, 1, 1, 0, 0, 0]>, <62, 8, 20, 12, 3, 0, 1, [0, 1, 1, 0, 0, 0]>, <63, 9, 21, 12, 3, 0, 1, [0, 1, 1, 0, 0, 0]>, <64, 10, 22, 12, 3, 0, 1, [0, 1, 1, 0, 0, 0]>, <65, 11, 23, 12, 3, 0, 1, [0, 1, 1, 0, 0, 0]>, <66, 12, 24, 12, 3, 0, 1, [0, 1, 1, 0, 0, 0]>, <67, 13, 25, 12, 3, 0, 1, [0, 1, 1, 0, 0, 0]>, <68, 14, 26, 12, 3, 0, 1, [0, 1, 1, 0, 0, 0]>, <69, 15, 27, 12, 3, 0, 1, [0, 1, 1, 0, 0, 0]>, <70, 16, 28, 12, 3, 0, 1, [0, 1, 1, 0, 0, 0]>, <71, 17, 29, 12, 3, 0, 1, [0, 1, 1, 0, 0, 0]>, <72, 4, 11, 7, 4, 0, 1, [0, 0, 0, 1, 1, 0]>, <73, 5, 12, 7, 4, 0, 1, [0, 0, 0, 1, 1, 0]>, <74, 11, 18, 7, 4, 0, 1, [0, 0, 0, 1, 1, 0]>, <75, 12, 19, 7, 4, 0, 1, [0, 0, 0, 1, 1, 0]>, <76, 17, 24, 7, 4, 0, 1, [0, 0, 0, 1, 1, 0]>, <77, 18, 25, 7, 4, 0, 1, [0, 0, 0, 1, 1, 0]>, <78, 19, 26, 7, 4, 0, 1, [0, 0, 0, 1, 1, 0]>, <79, 20, 27, 7, 4, 0, 1, [0, 0, 0, 1, 1, 0]>, <80, 2, 12, 10, 5, 1, 0, [0, 0, 0, 0, 1, 1]>, <81, 3, 13, 10, 5, 1, 0, [0, 0, 0, 0, 1, 1]>, <82, 4, 14, 10, 5, 1, 0, [0, 0, 0, 0, 1, 1]>, <83, 5, 15, 10, 5, 1, 0, [0, 0, 0, 0, 1, 1]>, <84, 10, 20, 10, 5, 1, 0, [0, 0, 0, 0, 1, 1]>, <85, 11, 21, 10, 5, 1, 0, [0, 0, 0, 0, 1, 1]>, <86, 12, 22, 10, 5, 1, 0, [0, 0, 0, 0, 1, 1]>, <87, 14, 24, 10, 5, 1, 0, [0, 0, 0, 0, 1, 1]>, <88, 15, 25, 10, 5, 1, 0, [0, 0, 0, 0, 1, 1]>, <89, 16, 26, 10, 5, 1, 0, [0, 0, 0, 0, 1, 1]>, <90, 17, 27, 10, 5, 1, 0, [0, 0, 0, 0, 1, 1]>, <91, 18, 28, 10, 5, 1, 0, [0, 0, 0, 0, 1, 1]>, <92, 19, 29, 10, 5, 1, 0, [0, 0, 0, 0, 1, 1]>, <93, 0, 12, 12, 6, 0, 1, [0, 0, 0, 1, 1, 0]>, <94, 1, 13, 12, 6, 0, 1, [0, 0, 0, 1, 1, 0]>, <95, 2, 14, 12, 6, 0, 1, [0, 0, 0, 1, 1, 0]>, <96, 3, 15, 12, 6, 0, 1, [0, 0, 0, 1, 1, 0]>, <97, 4, 16, 12, 6, 0, 1, [0, 0, 0, 1, 1, 0]>, <98, 5, 17, 12, 6, 0, 1, [0, 0, 0, 1, 1, 0]>, <99, 8, 20, 12, 6, 0, 1, [0, 0, 0, 1, 1, 0]>, <100, 9, 21, 12, 6, 0, 1, [0, 0, 0, 1, 1, 0]>, <101, 10, 22, 12, 6, 0, 1, [0, 0, 0, 1, 1, 0]>, <102, 11, 23, 12, 6, 0, 1, [0, 0, 0, 1, 1, 0]>, <103, 12, 24, 12, 6, 0, 1, [0, 0, 0, 1, 1, 0]>, <104, 13, 25, 12, 6, 0, 1, [0, 0, 0, 1, 1, 0]>, <105, 14, 26, 12, 6, 0, 1, [0, 0, 0, 1, 1, 0]>, <106, 15, 27, 12, 6, 0, 1, [0, 0, 0, 1, 1, 0]>, <107, 16, 28, 12, 6, 0, 1, [0, 0, 0, 1, 1, 0]>, <108, 17, 29, 12, 6, 0, 1, [0, 0, 0, 1, 1, 0]>, <109, 2, 12, 10, 7, 1, 0, [0, 0, 1, 1, 0, 0]>, <110, 3, 13, 10, 7, 1, 0, [0, 0, 1, 1, 0, 0]>, <111, 4, 14, 10, 7, 1, 0, [0, 0, 1, 1, 0, 0]>, <112, 5, 15, 10, 7, 1, 0, [0, 0, 1, 1, 0, 0]>, <113, 10, 20, 10, 7, 1, 0, [0, 0, 1, 1, 0, 0]>, <114, 11, 21, 10, 7, 1, 0, [0, 0, 1, 1, 0, 0]>, <115, 12, 22, 10, 7, 1, 0, [0, 0, 1, 1, 0, 0]>, <116, 14, 24, 10, 7, 1, 0, [0, 0, 1, 1, 0, 0]>, <117, 15, 25, 10, 7, 1, 0, [0, 0, 1, 1, 0, 0]>, <118, 16, 26, 10, 7, 1, 0, [0, 0, 1, 1, 0, 0]>, <119, 17, 27, 10, 7, 1, 0, [0, 0, 1, 1, 0, 0]>, <120, 18, 28, 10, 7, 1, 0, [0, 0, 1, 1, 0, 0]>, <121, 19, 29, 10, 7, 1, 0, [0, 0, 1, 1, 0, 0]>, <122, 1, 12, 11, 8, 0, 0, [0, 1, 1, 0, 0, 0]>, <123, 2, 13, 11, 8, 0, 0, [0, 1, 1, 0, 0, 0]>, <124, 3, 14, 11, 8, 0, 0, [0, 1, 1, 0, 0, 0]>, <125, 4, 15, 11, 8, 0, 0, [0, 1, 1, 0, 0, 0]>, <126, 5, 16, 11, 8, 0, 0, [0, 1, 1, 0, 0, 0]>, <127, 9, 20, 11, 8, 0, 0, [0, 1, 1, 0, 0, 0]>, <128, 10, 21, 11, 8, 0, 0, [0, 1, 1, 0, 0, 0]>, <129, 11, 22, 11, 8, 0, 0, [0, 1, 1, 0, 0, 0]>, <130, 12, 23, 11, 8, 0, 0, [0, 1, 1, 0, 0, 0]>, <131, 13, 24, 11, 8, 0, 0, [0, 1, 1, 0, 0, 0]>, <132, 14, 25, 11, 8, 0, 0, [0, 1, 1, 0, 0, 0]>, <133, 15, 26, 11, 8, 0, 0, [0, 1, 1, 0, 0, 0]>, <134, 16, 27, 11, 8, 0, 0, [0, 1, 1, 0, 0, 0]>, <135, 17, 28, 11, 8, 0, 0, [0, 1, 1, 0, 0, 0]>, <136, 18, 29, 11, 8, 0, 0, [0, 1, 1, 0, 0, 0]>, <137, 3, 12, 9, 9, 1, 0, [0, 0, 1, 1, 0, 0]>, <138, 4, 13, 9, 9, 1, 0, [0, 0, 1, 1, 0, 0]>, <139, 5, 14, 9, 9, 1, 0, [0, 0, 1, 1, 0, 0]>, <140, 11, 20, 9, 9, 1, 0, [0, 0, 1, 1, 0, 0]>, <141, 12, 21, 9, 9, 1, 0, [0, 0, 1, 1, 0, 0]>, <142, 15, 24, 9, 9, 1, 0, [0, 0, 1, 1, 0, 0]>, <143, 16, 25, 9, 9, 1, 0, [0, 0, 1, 1, 0, 0]>, <144, 17, 26, 9, 9, 1, 0, [0, 0, 1, 1, 0, 0]>, <145, 18, 27, 9, 9, 1, 0, [0, 0, 1, 1, 0, 0]>, <146, 19, 28, 9, 9, 1, 0, [0, 0, 1, 1, 0, 0]>, <147, 20, 29, 9, 9, 1, 0, [0, 0, 1, 1, 0, 0]>, <148, 4, 11, 7, 10, 0, 1, [0, 1, 1, 0, 0, 0]>, <149, 5, 12, 7, 10, 0, 1, [0, 1, 1, 0, 0, 0]>, <150, 11, 18, 7, 10, 0, 1, [0, 1, 1, 0, 0, 0]>, <151, 12, 19, 7, 10, 0, 1, [0, 1, 1, 0, 0, 0]>, <152, 17, 24, 7, 10, 0, 1, [0, 1, 1, 0, 0, 0]>, <153, 18, 25, 7, 10, 0, 1, [0, 1, 1, 0, 0, 0]>, <154, 19, 26, 7, 10, 0, 1, [0, 1, 1, 0, 0, 0]>, <155, 20, 27, 7, 10, 0, 1, [0, 1, 1, 0, 0, 0]>, <156, 2, 12, 10, 11, 0, 0, [0, 0, 0, 1, 1, 0]>, <157, 3, 13, 10, 11, 0, 0, [0, 0, 0, 1, 1, 0]>, <158, 4, 14, 10, 11, 0, 0, [0, 0, 0, 1, 1, 0]>, <159, 5, 15, 10, 11, 0, 0, [0, 0, 0, 1, 1, 0]>, <160, 10, 20, 10, 11, 0, 0, [0, 0, 0, 1, 1, 0]>, <161, 11, 21, 10, 11, 0, 0, [0, 0, 0, 1, 1, 0]>, <162, 12, 22, 10, 11, 0, 0, [0, 0, 0, 1, 1, 0]>, <163, 14, 24, 10, 11, 0, 0, [0, 0, 0, 1, 1, 0]>, <164, 15, 25, 10, 11, 0, 0, [0, 0, 0, 1, 1, 0]>, <165, 16, 26, 10, 11, 0, 0, [0, 0, 0, 1, 1, 0]>, <166, 17, 27, 10, 11, 0, 0, [0, 0, 0, 1, 1, 0]>, <167, 18, 28, 10, 11, 0, 0, [0, 0, 0, 1, 1, 0]>, <168, 19, 29, 10, 11, 0, 0, [0, 0, 0, 1, 1, 0]>, <169, 0, 12, 12, 12, 0, 1, [1, 1, 0, 0, 0, 0]>, <170, 1, 13, 12, 12, 0, 1, [1, 1, 0, 0, 0, 0]>, <171, 2, 14, 12, 12, 0, 1, [1, 1, 0, 0, 0, 0]>, <172, 3, 15, 12, 12, 0, 1, [1, 1, 0, 0, 0, 0]>, <173, 4, 16, 12, 12, 0, 1, [1, 1, 0, 0, 0, 0]>, <174, 5, 17, 12, 12, 0, 1, [1, 1, 0, 0, 0, 0]>, <175, 8, 20, 12, 12, 0, 1, [1, 1, 0, 0, 0, 0]>, <176, 9, 21, 12, 12, 0, 1, [1, 1, 0, 0, 0, 0]>, <177, 10, 22, 12, 12, 0, 1, [1, 1, 0, 0, 0, 0]>, <178, 11, 23, 12, 12, 0, 1, [1, 1, 0, 0, 0, 0]>, <179, 12, 24, 12, 12, 0, 1, [1, 1, 0, 0, 0, 0]>, <180, 13, 25, 12, 12, 0, 1, [1, 1, 0, 0, 0, 0]>, <181, 14, 26, 12, 12, 0, 1, [1, 1, 0, 0, 0, 0]>, <182, 15, 27, 12, 12, 0, 1, [1, 1, 0, 0, 0, 0]>, <183, 16, 28, 12, 12, 0, 1, [1, 1, 0, 0, 0, 0]>, <184, 17, 29, 12, 12, 0, 1, [1, 1, 0, 0, 0, 0]>, <185, 3, 12, 9, 13, 0, 1, [1, 0, 0, 0, 0, 1]>, <186, 4, 13, 9, 13, 0, 1, [1, 0, 0, 0, 0, 1]>, <187, 5, 14, 9, 13, 0, 1, [1, 0, 0, 0, 0, 1]>, <188, 11, 20, 9, 13, 0, 1, [1, 0, 0, 0, 0, 1]>, <189, 12, 21, 9, 13, 0, 1, [1, 0, 0, 0, 0, 1]>, <190, 15, 24, 9, 13, 0, 1, [1, 0, 0, 0, 0, 1]>, <191, 16, 25, 9, 13, 0, 1, [1, 0, 0, 0, 0, 1]>, <192, 17, 26, 9, 13, 0, 1, [1, 0, 0, 0, 0, 1]>, <193, 18, 27, 9, 13, 0, 1, [1, 0, 0, 0, 0, 1]>, <194, 19, 28, 9, 13, 0, 1, [1, 0, 0, 0, 0, 1]>, <195, 20, 29, 9, 13, 0, 1, [1, 0, 0, 0, 0, 1]>, <196, 4, 12, 8, 14, 0, 0, [0, 0, 1, 1, 0, 0]>, <197, 5, 13, 8, 14, 0, 0, [0, 0, 1, 1, 0, 0]>, <198, 11, 19, 8, 14, 0, 0, [0, 0, 1, 1, 0, 0]>, <199, 12, 20, 8, 14, 0, 0, [0, 0, 1, 1, 0, 0]>, <200, 16, 24, 8, 14, 0, 0, [0, 0, 1, 1, 0, 0]>, <201, 17, 25, 8, 14, 0, 0, [0, 0, 1, 1, 0, 0]>, <202, 18, 26, 8, 14, 0, 0, [0, 0, 1, 1, 0, 0]>, <203, 19, 27, 8, 14, 0, 0, [0, 0, 1, 1, 0, 0]>, <204, 20, 28, 8, 14, 0, 0, [0, 0, 1, 1, 0, 0]>};
